<?xml version = "1.0" encoding="UTF-8" standalone="yes"?>
<CPLEXSolution version="1.2">
 <header
   problemName="IloCplex"
   solutionName="p0"
   solutionIndex="-1"
   objectiveValue="4820256"
   solutionTypeValue="3"
   solutionTypeString="primal"
   solutionStatusValue="127"
   solutionStatusString="integer feasible solution"
   solutionMethodString="mip"
   primalFeasible="0"
   dualFeasible="0"
   writeLevel="3"/>
 <quality
   epInt="1.0000000000000001e-05"
   epRHS="9.9999999999999995e-07"
   maxIntInfeas="0"
   maxPrimalInfeas="0"
   maxX="1"
   maxSlack="1"/>
 <variables>
  <variable name="w0_1" index="1" value="1"/>
  <variable name="w0_2" index="2" value="1"/>
  <variable name="w0_4" index="4" value="1"/>
  <variable name="w0_5" index="5" value="1"/>
  <variable name="w0_6" index="6" value="1"/>
  <variable name="w0_9" index="9" value="1"/>
  <variable name="w0_12" index="12" value="1"/>
  <variable name="w1_1" index="14" value="1"/>
  <variable name="w1_2" index="15" value="1"/>
  <variable name="w1_4" index="17" value="1"/>
  <variable name="w1_5" index="18" value="1"/>
  <variable name="w1_6" index="19" value="1"/>
  <variable name="w1_9" index="22" value="1"/>
  <variable name="w1_12" index="25" value="1"/>
  <variable name="w4_1" index="53" value="1"/>
  <variable name="w4_2" index="54" value="1"/>
  <variable name="w4_4" index="56" value="1"/>
  <variable name="w4_5" index="57" value="1"/>
  <variable name="w4_6" index="58" value="1"/>
  <variable name="w4_9" index="61" value="1"/>
  <variable name="w4_12" index="64" value="1"/>
  <variable name="w5_1" index="66" value="1"/>
  <variable name="w5_2" index="67" value="1"/>
  <variable name="w5_4" index="69" value="1"/>
  <variable name="w5_5" index="70" value="1"/>
  <variable name="w5_6" index="71" value="1"/>
  <variable name="w5_9" index="74" value="1"/>
  <variable name="w5_12" index="77" value="1"/>
  <variable name="w7_1" index="92" value="1"/>
  <variable name="w7_2" index="93" value="1"/>
  <variable name="w7_4" index="95" value="1"/>
  <variable name="w7_5" index="96" value="1"/>
  <variable name="w7_6" index="97" value="1"/>
  <variable name="w7_9" index="100" value="1"/>
  <variable name="w7_12" index="103" value="1"/>
  <variable name="w8_1" index="105" value="1"/>
  <variable name="w8_2" index="106" value="1"/>
  <variable name="w8_4" index="108" value="1"/>
  <variable name="w8_5" index="109" value="1"/>
  <variable name="w8_6" index="110" value="1"/>
  <variable name="w8_9" index="113" value="1"/>
  <variable name="w8_12" index="116" value="1"/>
  <variable name="w9_1" index="118" value="1"/>
  <variable name="w9_2" index="119" value="1"/>
  <variable name="w9_4" index="121" value="1"/>
  <variable name="w9_5" index="122" value="1"/>
  <variable name="w9_6" index="123" value="1"/>
  <variable name="w9_9" index="126" value="1"/>
  <variable name="w9_12" index="129" value="1"/>
  <variable name="w10_1" index="131" value="1"/>
  <variable name="w10_2" index="132" value="1"/>
  <variable name="w10_4" index="134" value="1"/>
  <variable name="w10_5" index="135" value="1"/>
  <variable name="w10_6" index="136" value="1"/>
  <variable name="w10_9" index="139" value="1"/>
  <variable name="w10_12" index="142" value="1"/>
  <variable name="x0_200" index="369" value="1"/>
  <variable name="x1_203" index="972" value="1"/>
  <variable name="x2_4" index="1373" value="1"/>
  <variable name="x3_208" index="2177" value="1"/>
  <variable name="x4_298" index="2867" value="1"/>
  <variable name="x5_161" index="3330" value="1"/>
  <variable name="x6_34" index="3803" value="1"/>
  <variable name="x7_361" index="4730" value="1"/>
  <variable name="x8_15" index="4984" value="1"/>
  <variable name="x9_213" index="5782" value="1"/>
  <variable name="x10_13" index="6182" value="1"/>
  <variable name="x11_190" index="6959" value="1"/>
  <variable name="x12_478" index="7847" value="1"/>
  <variable name="x13_21" index="7990" value="1"/>
  <variable name="x14_449" index="9018" value="1"/>
  <variable name="x15_116" index="9285" value="1"/>
  <variable name="x16_338" index="10107" value="1"/>
  <variable name="x17_402" index="10771" value="1"/>
  <variable name="x18_496" index="11465" value="1"/>
  <variable name="x19_220" index="11789" value="1"/>
  <variable name="x20_487" index="12656" value="1"/>
  <variable name="x21_476" index="13245" value="1"/>
  <variable name="x22_399" index="13768" value="1"/>
  <variable name="x23_166" index="14135" value="1"/>
  <variable name="x24_26" index="14595" value="1"/>
  <variable name="x25_462" index="15631" value="1"/>
  <variable name="x26_571" index="16340" value="1"/>
  <variable name="x27_326" index="16695" value="1"/>
  <variable name="x28_401" index="17370" value="1"/>
  <variable name="x29_216" index="17785" value="1"/>
  <variable name="x30_140" index="18309" value="1"/>
  <variable name="x31_219" index="18988" value="1"/>
  <variable name="x32_307" index="19676" value="1"/>
  <variable name="x33_147" index="20116" value="1"/>
  <variable name="x34_395" index="20964" value="1"/>
  <variable name="x35_318" index="21487" value="1"/>
  <variable name="x36_129" index="21898" value="1"/>
  <variable name="x37_552" index="22921" value="1"/>
  <variable name="x38_354" index="23323" value="1"/>
  <variable name="x39_363" index="23932" value="1"/>
  <variable name="x40_273" index="24442" value="1"/>
  <variable name="x41_472" index="25241" value="1"/>
  <variable name="x42_518" index="25887" value="1"/>
  <variable name="x43_242" index="26211" value="1"/>
  <variable name="x44_169" index="26738" value="1"/>
  <variable name="x45_345" index="27514" value="1"/>
  <variable name="x46_434" index="28203" value="1"/>
  <variable name="x47_92" index="28461" value="1"/>
  <variable name="x48_19" index="28988" value="1"/>
  <variable name="x49_24" index="29593" value="1"/>
  <variable name="x50_348" index="30517" value="1"/>
  <variable name="x51_121" index="30890" value="1"/>
  <variable name="x52_45" index="31414" value="1"/>
  <variable name="x53_134" index="32103" value="1"/>
  <variable name="x54_319" index="32888" value="1"/>
  <variable name="x55_580" index="33749" value="1"/>
  <variable name="x56_295" index="34064" value="1"/>
  <variable name="x57_485" index="34854" value="1"/>
  <variable name="x58_128" index="35097" value="1"/>
  <variable name="x59_247" index="35816" value="1"/>
  <variable name="x60_537" index="36706" value="1"/>
  <variable name="x61_272" index="37041" value="1"/>
  <variable name="x62_408" index="37777" value="1"/>
  <variable name="x63_197" index="38166" value="1"/>
  <variable name="x64_233" index="38802" value="1"/>
  <variable name="x65_284" index="39453" value="1"/>
  <variable name="x66_225" index="39994" value="1"/>
  <variable name="x67_329" index="40698" value="1"/>
  <variable name="x68_196" index="41165" value="1"/>
  <variable name="x69_249" index="41818" value="1"/>
  <variable name="x70_145" index="42314" value="1"/>
  <variable name="x71_127" index="42896" value="1"/>
  <variable name="x72_10" index="43379" value="1"/>
  <variable name="x73_59" index="44028" value="1"/>
  <variable name="x74_63" index="44632" value="1"/>
  <variable name="x75_25" index="45194" value="1"/>
  <variable name="x76_106" index="45875" value="1"/>
  <variable name="x77_231" index="46600" value="1"/>
  <variable name="x78_388" index="47357" value="1"/>
  <variable name="x79_359" index="47928" value="1"/>
  <variable name="x80_82" index="48251" value="1"/>
  <variable name="x81_74" index="48843" value="1"/>
  <variable name="x82_124" index="49493" value="1"/>
  <variable name="x83_248" index="50217" value="1"/>
  <variable name="x84_437" index="51006" value="1"/>
  <variable name="x85_265" index="51434" value="1"/>
  <variable name="x86_531" index="52300" value="1"/>
  <variable name="x87_250" index="52619" value="1"/>
  <variable name="x88_391" index="53360" value="1"/>
  <variable name="x89_2" index="53571" value="1"/>
  <variable name="x90_591" index="54760" value="1"/>
  <variable name="x91_573" index="55342" value="1"/>
  <variable name="x92_183" index="55552" value="1"/>
  <variable name="x93_377" index="56346" value="1"/>
  <variable name="x94_486" index="57055" value="1"/>
  <variable name="x95_9" index="57178" value="1"/>
  <variable name="x96_296" index="58065" value="1"/>
  <variable name="x97_97" index="58466" value="1"/>
  <variable name="x98_209" index="59178" value="1"/>
  <variable name="x99_412" index="59981" value="1"/>
  <variable name="x100_287" index="60456" value="1"/>
  <variable name="x101_266" index="61035" value="1"/>
  <variable name="x102_441" index="61810" value="1"/>
  <variable name="x103_280" index="62249" value="1"/>
  <variable name="x104_47" index="62616" value="1"/>
  <variable name="x105_414" index="63583" value="1"/>
  <variable name="x106_65" index="63834" value="1"/>
  <variable name="x107_241" index="64610" value="1"/>
  <variable name="x108_527" index="65496" value="1"/>
  <variable name="x109_321" index="65890" value="1"/>
  <variable name="x110_163" index="66332" value="1"/>
  <variable name="x111_48" index="66817" value="1"/>
  <variable name="x112_51" index="67420" value="1"/>
  <variable name="x113_40" index="68009" value="1"/>
  <variable name="x114_212" index="68781" value="1"/>
  <variable name="x115_226" index="69395" value="1"/>
  <variable name="x116_28" index="69797" value="1"/>
  <variable name="x117_350" index="70719" value="1"/>
  <variable name="x118_119" index="71088" value="1"/>
  <variable name="x119_392" index="71961" value="1"/>
  <variable name="x120_137" index="72306" value="1"/>
  <variable name="x121_347" index="73116" value="1"/>
  <variable name="x122_293" index="73662" value="1"/>
  <variable name="x123_149" index="74118" value="1"/>
  <variable name="x124_8" index="74577" value="1"/>
  <variable name="x125_469" index="75638" value="1"/>
  <variable name="x126_315" index="76084" value="1"/>
  <variable name="x127_420" index="76789" value="1"/>
  <variable name="x128_286" index="77255" value="1"/>
  <variable name="x129_135" index="77704" value="1"/>
  <variable name="x130_470" index="78639" value="1"/>
  <variable name="x131_114" index="78883" value="1"/>
  <variable name="x132_524" index="79893" value="1"/>
  <variable name="x133_358" index="80327" value="1"/>
  <variable name="x134_84" index="80653" value="1"/>
  <variable name="x135_516" index="81685" value="1"/>
  <variable name="x136_195" index="81964" value="1"/>
  <variable name="x137_93" index="82462" value="1"/>
  <variable name="x138_302" index="83271" value="1"/>
  <variable name="x139_477" index="84046" value="1"/>
  <variable name="x140_143" index="84312" value="1"/>
  <variable name="x141_160" index="84929" value="1"/>
  <variable name="x142_218" index="85587" value="1"/>
  <variable name="x143_159" index="86128" value="1"/>
  <variable name="x144_173" index="86742" value="1"/>
  <variable name="x145_228" index="87397" value="1"/>
  <variable name="x146_570" index="88339" value="1"/>
  <variable name="x147_157" index="88526" value="1"/>
  <variable name="x148_566" index="89535" value="1"/>
  <variable name="x149_584" index="90153" value="1"/>
  <variable name="x150_335" index="90504" value="1"/>
  <variable name="x151_70" index="90839" value="1"/>
  <variable name="x152_586" index="91955" value="1"/>
  <variable name="x153_410" index="92379" value="1"/>
  <variable name="x154_325" index="92894" value="1"/>
  <variable name="x155_201" index="93370" value="1"/>
  <variable name="x156_425" index="94194" value="1"/>
  <variable name="x157_409" index="94778" value="1"/>
  <variable name="x158_512" index="95481" value="1"/>
  <variable name="x159_320" index="95889" value="1"/>
  <variable name="x160_223" index="96392" value="1"/>
  <variable name="x161_337" index="97106" value="1"/>
  <variable name="x162_205" index="97574" value="1"/>
  <variable name="x163_419" index="98388" value="1"/>
  <variable name="x164_317" index="98886" value="1"/>
  <variable name="x165_37" index="99206" value="1"/>
  <variable name="x166_210" index="99979" value="1"/>
  <variable name="x167_178" index="100547" value="1"/>
  <variable name="x168_239" index="101208" value="1"/>
  <variable name="x169_538" index="102107" value="1"/>
  <variable name="x170_461" index="102630" value="1"/>
  <variable name="x171_448" index="103217" value="1"/>
  <variable name="x172_529" index="103898" value="1"/>
  <variable name="x173_471" index="104440" value="1"/>
  <variable name="x174_560" index="105129" value="1"/>
  <variable name="x175_299" index="105468" value="1"/>
  <variable name="x176_111" index="105880" value="1"/>
  <variable name="x177_68" index="106437" value="1"/>
  <variable name="x178_118" index="107087" value="1"/>
  <variable name="x179_500" index="108069" value="1"/>
  <variable name="x180_422" index="108591" value="1"/>
  <variable name="x181_466" index="109235" value="1"/>
  <variable name="x182_64" index="109433" value="1"/>
  <variable name="x183_424" index="110393" value="1"/>
  <variable name="x184_289" index="110858" value="1"/>
  <variable name="x185_513" index="111682" value="1"/>
  <variable name="x186_452" index="112221" value="1"/>
  <variable name="x187_342" index="112711" value="1"/>
  <variable name="x188_292" index="113261" value="1"/>
  <variable name="x189_525" index="114094" value="1"/>
  <variable name="x190_69" index="114238" value="1"/>
  <variable name="x191_81" index="114850" value="1"/>
  <variable name="x192_172" index="115541" value="1"/>
  <variable name="x193_360" index="116329" value="1"/>
  <variable name="x194_368" index="116937" value="1"/>
  <variable name="x195_60" index="117229" value="1"/>
  <variable name="x196_232" index="118001" value="1"/>
  <variable name="x197_104" index="118473" value="1"/>
  <variable name="x198_344" index="119313" value="1"/>
  <variable name="x199_41" index="119610" value="1"/>
  <variable name="x200_88" index="120257" value="1"/>
  <variable name="x201_559" index="121328" value="1"/>
  <variable name="x202_493" index="121862" value="1"/>
  <variable name="x203_152" index="122121" value="1"/>
  <variable name="x204_490" index="123059" value="1"/>
  <variable name="x205_158" index="123327" value="1"/>
  <variable name="x206_375" index="124144" value="1"/>
  <variable name="x207_509" index="124878" value="1"/>
  <variable name="x208_380" index="125349" value="1"/>
  <variable name="x209_56" index="125625" value="1"/>
  <variable name="x210_583" index="126752" value="1"/>
  <variable name="x211_333" index="127102" value="1"/>
  <variable name="x212_131" index="127500" value="1"/>
  <variable name="x213_270" index="128239" value="1"/>
  <variable name="x214_372" index="128941" value="1"/>
  <variable name="x215_599" index="129768" value="1"/>
  <variable name="x216_473" index="130242" value="1"/>
  <variable name="x217_373" index="130742" value="1"/>
  <variable name="x218_349" index="131318" value="1"/>
  <variable name="x219_94" index="131663" value="1"/>
  <variable name="x220_442" index="132611" value="1"/>
  <variable name="x221_588" index="133357" value="1"/>
  <variable name="x222_221" index="133590" value="1"/>
  <variable name="x223_102" index="134071" value="1"/>
  <variable name="x224_520" index="135089" value="1"/>
  <variable name="x225_215" index="135384" value="1"/>
  <variable name="x226_279" index="136048" value="1"/>
  <variable name="x227_577" index="136946" value="1"/>
  <variable name="x228_423" index="137392" value="1"/>
  <variable name="x229_411" index="137980" value="1"/>
  <variable name="x230_592" index="138761" value="1"/>
  <variable name="x231_488" index="139257" value="1"/>
  <variable name="x232_267" index="139636" value="1"/>
  <variable name="x233_253" index="140222" value="1"/>
  <variable name="x234_42" index="140611" value="1"/>
  <variable name="x235_76" index="141245" value="1"/>
  <variable name="x236_230" index="141999" value="1"/>
  <variable name="x237_54" index="142423" value="1"/>
  <variable name="x238_546" index="143515" value="1"/>
  <variable name="x239_301" index="143870" value="1"/>
  <variable name="x240_78" index="144247" value="1"/>
  <variable name="x241_211" index="144980" value="1"/>
  <variable name="x242_120" index="145489" value="1"/>
  <variable name="x243_103" index="146072" value="1"/>
  <variable name="x244_508" index="147077" value="1"/>
  <variable name="x245_262" index="147431" value="1"/>
  <variable name="x246_277" index="148046" value="1"/>
  <variable name="x247_505" index="148874" value="1"/>
  <variable name="x248_139" index="149108" value="1"/>
  <variable name="x249_400" index="149969" value="1"/>
  <variable name="x250_405" index="150574" value="1"/>
  <variable name="x251_192" index="150961" value="1"/>
  <variable name="x252_417" index="151786" value="1"/>
  <variable name="x253_311" index="152280" value="1"/>
  <variable name="x254_387" index="152956" value="1"/>
  <variable name="x255_394" index="153563" value="1"/>
  <variable name="x256_443" index="154212" value="1"/>
  <variable name="x257_300" index="154669" value="1"/>
  <variable name="x258_27" index="154996" value="1"/>
  <variable name="x259_458" index="156027" value="1"/>
  <variable name="x260_526" index="156695" value="1"/>
  <variable name="x261_281" index="157050" value="1"/>
  <variable name="x262_0" index="157369" value="1"/>
  <variable name="x263_494" index="158463" value="1"/>
  <variable name="x264_83" index="158652" value="1"/>
  <variable name="x265_576" index="159745" value="1"/>
  <variable name="x266_459" index="160228" value="1"/>
  <variable name="x267_17" index="160386" value="1"/>
  <variable name="x268_503" index="161472" value="1"/>
  <variable name="x269_467" index="162036" value="1"/>
  <variable name="x270_151" index="162320" value="1"/>
  <variable name="x271_39" index="162808" value="1"/>
  <variable name="x272_36" index="163405" value="1"/>
  <variable name="x273_353" index="164322" value="1"/>
  <variable name="x274_187" index="164756" value="1"/>
  <variable name="x275_418" index="165587" value="1"/>
  <variable name="x276_382" index="166151" value="1"/>
  <variable name="x277_58" index="166427" value="1"/>
  <variable name="x278_572" index="167541" value="1"/>
  <variable name="x279_504" index="168073" value="1"/>
  <variable name="x280_142" index="168311" value="1"/>
  <variable name="x281_109" index="168878" value="1"/>
  <variable name="x282_598" index="169967" value="1"/>
  <variable name="x283_53" index="170022" value="1"/>
  <variable name="x284_217" index="170786" value="1"/>
  <variable name="x285_238" index="171407" value="1"/>
  <variable name="x286_339" index="172108" value="1"/>
  <variable name="x287_432" index="172801" value="1"/>
  <variable name="x288_403" index="173372" value="1"/>
  <variable name="x289_389" index="173958" value="1"/>
  <variable name="x290_95" index="174264" value="1"/>
  <variable name="x291_86" index="174855" value="1"/>
  <variable name="x292_549" index="175918" value="1"/>
  <variable name="x293_29" index="175998" value="1"/>
  <variable name="x294_346" index="176915" value="1"/>
  <variable name="x295_522" index="177691" value="1"/>
  <variable name="x296_153" index="177922" value="1"/>
  <variable name="x297_146" index="178515" value="1"/>
  <variable name="x298_438" index="179407" value="1"/>
  <variable name="x299_557" index="180126" value="1"/>
  <variable name="x300_271" index="180440" value="1"/>
  <variable name="x301_115" index="180884" value="1"/>
  <variable name="x302_474" index="181843" value="1"/>
  <variable name="x303_227" index="182196" value="1"/>
  <variable name="x304_7" index="182576" value="1"/>
  <variable name="x305_136" index="183305" value="1"/>
  <variable name="x306_554" index="184323" value="1"/>
  <variable name="x307_294" index="184663" value="1"/>
  <variable name="x308_562" index="185531" value="1"/>
  <variable name="x309_463" index="186032" value="1"/>
  <variable name="x310_303" index="186472" value="1"/>
  <variable name="x311_123" index="186892" value="1"/>
  <variable name="x312_309" index="187678" value="1"/>
  <variable name="x313_427" index="188396" value="1"/>
  <variable name="x314_390" index="188959" value="1"/>
  <variable name="x315_75" index="189244" value="1"/>
  <variable name="x316_141" index="189910" value="1"/>
  <variable name="x317_80" index="190449" value="1"/>
  <variable name="x318_96" index="191065" value="1"/>
  <variable name="x319_194" index="191763" value="1"/>
  <variable name="x320_246" index="192415" value="1"/>
  <variable name="x321_376" index="193145" value="1"/>
  <variable name="x322_179" index="193548" value="1"/>
  <variable name="x323_44" index="194013" value="1"/>
  <variable name="x324_191" index="194760" value="1"/>
  <variable name="x325_491" index="195660" value="1"/>
  <variable name="x326_331" index="196100" value="1"/>
  <variable name="x327_582" index="196951" value="1"/>
  <variable name="x328_324" index="197293" value="1"/>
  <variable name="x329_1" index="197570" value="1"/>
  <variable name="x330_12" index="198181" value="1"/>
  <variable name="x331_351" index="199120" value="1"/>
  <variable name="x332_155" index="199524" value="1"/>
  <variable name="x333_202" index="200171" value="1"/>
  <variable name="x334_528" index="201097" value="1"/>
  <variable name="x335_254" index="201423" value="1"/>
  <variable name="x336_126" index="201895" value="1"/>
  <variable name="x337_304" index="202673" value="1"/>
  <variable name="x338_453" index="203422" value="1"/>
  <variable name="x339_188" index="203757" value="1"/>
  <variable name="x340_544" index="204713" value="1"/>
  <variable name="x341_555" index="205324" value="1"/>
  <variable name="x342_341" index="205710" value="1"/>
  <variable name="x343_99" index="206068" value="1"/>
  <variable name="x344_479" index="207048" value="1"/>
  <variable name="x345_565" index="207734" value="1"/>
  <variable name="x346_312" index="208081" value="1"/>
  <variable name="x347_370" index="208739" value="1"/>
  <variable name="x348_533" index="209502" value="1"/>
  <variable name="x349_407" index="209976" value="1"/>
  <variable name="x350_268" index="210437" value="1"/>
  <variable name="x351_35" index="210804" value="1"/>
  <variable name="x352_558" index="211927" value="1"/>
  <variable name="x353_130" index="212099" value="1"/>
  <variable name="x354_214" index="212783" value="1"/>
  <variable name="x355_440" index="213609" value="1"/>
  <variable name="x356_308" index="214077" value="1"/>
  <variable name="x357_539" index="214908" value="1"/>
  <variable name="x358_91" index="215060" value="1"/>
  <variable name="x359_483" index="216052" value="1"/>
  <variable name="x360_433" index="216602" value="1"/>
  <variable name="x361_542" index="217311" value="1"/>
  <variable name="x362_352" index="217721" value="1"/>
  <variable name="x363_67" index="218036" value="1"/>
  <variable name="x364_110" index="218679" value="1"/>
  <variable name="x365_444" index="219613" value="1"/>
  <variable name="x366_87" index="219856" value="1"/>
  <variable name="x367_323" index="220692" value="1"/>
  <variable name="x368_530" index="221499" value="1"/>
  <variable name="x369_413" index="221982" value="1"/>
  <variable name="x370_355" index="222524" value="1"/>
  <variable name="x371_156" index="222925" value="1"/>
  <variable name="x372_33" index="223402" value="1"/>
  <variable name="x373_430" index="224399" value="1"/>
  <variable name="x374_198" index="224767" value="1"/>
  <variable name="x375_20" index="225189" value="1"/>
  <variable name="x376_596" index="226365" value="1"/>
  <variable name="x377_594" index="226963" value="1"/>
  <variable name="x378_393" index="227362" value="1"/>
  <variable name="x379_589" index="228158" value="1"/>
  <variable name="x380_456" index="228625" value="1"/>
  <variable name="x381_366" index="229135" value="1"/>
  <variable name="x382_519" index="229888" value="1"/>
  <variable name="x383_306" index="230275" value="1"/>
  <variable name="x384_164" index="230733" value="1"/>
  <variable name="x385_497" index="231666" value="1"/>
  <variable name="x386_278" index="232047" value="1"/>
  <variable name="x387_73" index="232442" value="1"/>
  <variable name="x388_182" index="233151" value="1"/>
  <variable name="x389_170" index="233739" value="1"/>
  <variable name="x390_534" index="234703" value="1"/>
  <variable name="x391_416" index="235185" value="1"/>
  <variable name="x392_569" index="235938" value="1"/>
  <variable name="x393_184" index="236153" value="1"/>
  <variable name="x394_495" index="237064" value="1"/>
  <variable name="x395_406" index="237575" value="1"/>
  <variable name="x396_256" index="238025" value="1"/>
  <variable name="x397_285" index="238654" value="1"/>
  <variable name="x398_275" index="239244" value="1"/>
  <variable name="x399_521" index="240090" value="1"/>
  <variable name="x400_367" index="240536" value="1"/>
  <variable name="x401_176" index="240945" value="1"/>
  <variable name="x402_385" index="241754" value="1"/>
  <variable name="x403_245" index="242214" value="1"/>
  <variable name="x404_439" index="243008" value="1"/>
  <variable name="x405_16" index="243185" value="1"/>
  <variable name="x406_340" index="244109" value="1"/>
  <variable name="x407_255" index="244624" value="1"/>
  <variable name="x408_85" index="245054" value="1"/>
  <variable name="x409_175" index="245744" value="1"/>
  <variable name="x410_297" index="246466" value="1"/>
  <variable name="x411_229" index="246998" value="1"/>
  <variable name="x412_482" index="247851" value="1"/>
  <variable name="x413_193" index="248162" value="1"/>
  <variable name="x414_547" index="249116" value="1"/>
  <variable name="x415_313" index="249482" value="1"/>
  <variable name="x416_334" index="250103" value="1"/>
  <variable name="x417_475" index="250844" value="1"/>
  <variable name="x418_498" index="251467" value="1"/>
  <variable name="x419_204" index="251773" value="1"/>
  <variable name="x420_484" index="252653" value="1"/>
  <variable name="x421_207" index="252976" value="1"/>
  <variable name="x422_243" index="253612" value="1"/>
  <variable name="x423_171" index="254140" value="1"/>
  <variable name="x424_282" index="254851" value="1"/>
  <variable name="x425_328" index="255497" value="1"/>
  <variable name="x426_30" index="255799" value="1"/>
  <variable name="x427_5" index="256374" value="1"/>
  <variable name="x428_165" index="257134" value="1"/>
  <variable name="x429_378" index="257947" value="1"/>
  <variable name="x430_133" index="258302" value="1"/>
  <variable name="x431_32" index="258801" value="1"/>
  <variable name="x432_523" index="259892" value="1"/>
  <variable name="x433_38" index="260007" value="1"/>
  <variable name="x434_310" index="260879" value="1"/>
  <variable name="x435_536" index="261705" value="1"/>
  <variable name="x436_49" index="261818" value="1"/>
  <variable name="x437_574" index="262943" value="1"/>
  <variable name="x438_264" index="263233" value="1"/>
  <variable name="x439_122" index="263691" value="1"/>
  <variable name="x440_150" index="264319" value="1"/>
  <variable name="x441_263" index="265032" value="1"/>
  <variable name="x442_276" index="265645" value="1"/>
  <variable name="x443_545" index="266514" value="1"/>
  <variable name="x444_22" index="266591" value="1"/>
  <variable name="x445_426" index="267595" value="1"/>
  <variable name="x446_107" index="267876" value="1"/>
  <variable name="x447_11" index="268380" value="1"/>
  <variable name="x448_379" index="269348" value="1"/>
  <variable name="x449_105" index="269674" value="1"/>
  <variable name="x450_43" index="270212" value="1"/>
  <variable name="x451_480" index="271249" value="1"/>
  <variable name="x452_189" index="271558" value="1"/>
  <variable name="x453_561" index="272530" value="1"/>
  <variable name="x454_236" index="272805" value="1"/>
  <variable name="x455_421" index="273590" value="1"/>
  <variable name="x456_445" index="274214" value="1"/>
  <variable name="x457_258" index="274627" value="1"/>
  <variable name="x458_291" index="275260" value="1"/>
  <variable name="x459_357" index="275926" value="1"/>
  <variable name="x460_517" index="276686" value="1"/>
  <variable name="x461_587" index="277356" value="1"/>
  <variable name="x462_553" index="277922" value="1"/>
  <variable name="x463_356" index="278325" value="1"/>
  <variable name="x464_502" index="279071" value="1"/>
  <variable name="x465_415" index="279584" value="1"/>
  <variable name="x466_257" index="280026" value="1"/>
  <variable name="x467_132" index="280501" value="1"/>
  <variable name="x468_567" index="281536" value="1"/>
  <variable name="x469_3" index="281572" value="1"/>
  <variable name="x470_72" index="282241" value="1"/>
  <variable name="x471_259" index="283028" value="1"/>
  <variable name="x472_369" index="283738" value="1"/>
  <variable name="x473_101" index="284070" value="1"/>
  <variable name="x474_31" index="284600" value="1"/>
  <variable name="x475_510" index="285679" value="1"/>
  <variable name="x476_55" index="285824" value="1"/>
  <variable name="x477_371" index="286740" value="1"/>
  <variable name="x478_240" index="287209" value="1"/>
  <variable name="x479_181" index="287750" value="1"/>
  <variable name="x480_447" index="288616" value="1"/>
  <variable name="x481_450" index="289219" value="1"/>
  <variable name="x482_52" index="289421" value="1"/>
  <variable name="x483_180" index="290149" value="1"/>
  <variable name="x484_506" index="291075" value="1"/>
  <variable name="x485_316" index="291485" value="1"/>
  <variable name="x486_514" index="292283" value="1"/>
  <variable name="x487_269" index="292638" value="1"/>
  <variable name="x488_77" index="293046" value="1"/>
  <variable name="x489_222" index="293791" value="1"/>
  <variable name="x490_314" index="294483" value="1"/>
  <variable name="x491_154" index="294923" value="1"/>
  <variable name="x492_224" index="295593" value="1"/>
  <variable name="x493_46" index="296015" value="1"/>
  <variable name="x494_23" index="296592" value="1"/>
  <variable name="x495_431" index="297600" value="1"/>
  <variable name="x496_144" index="297913" value="1"/>
  <variable name="x497_168" index="298537" value="1"/>
  <variable name="x498_251" index="299220" value="1"/>
  <variable name="x499_548" index="300117" value="1"/>
  <variable name="x500_532" index="300701" value="1"/>
  <variable name="x501_468" index="301237" value="1"/>
  <variable name="x502_429" index="301798" value="1"/>
  <variable name="x503_384" index="302353" value="1"/>
  <variable name="x504_541" index="303110" value="1"/>
  <variable name="x505_327" index="303496" value="1"/>
  <variable name="x506_364" index="304133" value="1"/>
  <variable name="x507_261" index="304630" value="1"/>
  <variable name="x508_185" index="305154" value="1"/>
  <variable name="x509_330" index="305899" value="1"/>
  <variable name="x510_50" index="306219" value="1"/>
  <variable name="x511_117" index="306886" value="1"/>
  <variable name="x512_563" index="307932" value="1"/>
  <variable name="x513_436" index="308405" value="1"/>
  <variable name="x514_336" index="308905" value="1"/>
  <variable name="x515_597" index="309766" value="1"/>
  <variable name="x516_381" index="310150" value="1"/>
  <variable name="x517_575" index="310944" value="1"/>
  <variable name="x518_62" index="311031" value="1"/>
  <variable name="x519_79" index="311648" value="1"/>
  <variable name="x520_550" index="312719" value="1"/>
  <variable name="x521_481" index="313250" value="1"/>
  <variable name="x522_568" index="313937" value="1"/>
  <variable name="x523_234" index="314203" value="1"/>
  <variable name="x524_451" index="315020" value="1"/>
  <variable name="x525_322" index="315491" value="1"/>
  <variable name="x526_186" index="315955" value="1"/>
  <variable name="x527_446" index="316815" value="1"/>
  <variable name="x528_260" index="317229" value="1"/>
  <variable name="x529_551" index="318120" value="1"/>
  <variable name="x530_593" index="318762" value="1"/>
  <variable name="x531_581" index="319350" value="1"/>
  <variable name="x532_332" index="319701" value="1"/>
  <variable name="x533_464" index="320433" value="1"/>
  <variable name="x534_595" index="321164" value="1"/>
  <variable name="x535_435" index="321604" value="1"/>
  <variable name="x536_252" index="322021" value="1"/>
  <variable name="x537_543" index="322912" value="1"/>
  <variable name="x538_125" index="323094" value="1"/>
  <variable name="x539_365" index="323934" value="1"/>
  <variable name="x540_455" index="324624" value="1"/>
  <variable name="x541_515" index="325284" value="1"/>
  <variable name="x542_383" index="325752" value="1"/>
  <variable name="x543_578" index="326547" value="1"/>
  <variable name="x544_374" index="326943" value="1"/>
  <variable name="x545_590" index="327759" value="1"/>
  <variable name="x546_492" index="328261" value="1"/>
  <variable name="x547_386" index="328755" value="1"/>
  <variable name="x548_98" index="329067" value="1"/>
  <variable name="x549_57" index="329626" value="1"/>
  <variable name="x550_66" index="330235" value="1"/>
  <variable name="x551_206" index="330975" value="1"/>
  <variable name="x552_454" index="331823" value="1"/>
  <variable name="x553_237" index="332206" value="1"/>
  <variable name="x554_428" index="332997" value="1"/>
  <variable name="x555_162" index="333331" value="1"/>
  <variable name="x556_148" index="333917" value="1"/>
  <variable name="x557_71" index="334440" value="1"/>
  <variable name="x558_61" index="335030" value="1"/>
  <variable name="x559_244" index="335813" value="1"/>
  <variable name="x560_397" index="336566" value="1"/>
  <variable name="x561_457" index="337226" value="1"/>
  <variable name="x562_343" index="337712" value="1"/>
  <variable name="x563_112" index="338081" value="1"/>
  <variable name="x564_579" index="339148" value="1"/>
  <variable name="x565_511" index="339680" value="1"/>
  <variable name="x566_283" index="340052" value="1"/>
  <variable name="x567_396" index="340765" value="1"/>
  <variable name="x568_14" index="340983" value="1"/>
  <variable name="x569_489" index="342058" value="1"/>
  <variable name="x570_404" index="342573" value="1"/>
  <variable name="x571_90" index="342859" value="1"/>
  <variable name="x572_540" index="343909" value="1"/>
  <variable name="x573_235" index="344204" value="1"/>
  <variable name="x574_305" index="344874" value="1"/>
  <variable name="x575_499" index="345668" value="1"/>
  <variable name="x576_18" index="345787" value="1"/>
  <variable name="x577_290" index="346659" value="1"/>
  <variable name="x578_585" index="347554" value="1"/>
  <variable name="x579_564" index="348133" value="1"/>
  <variable name="x580_138" index="348307" value="1"/>
  <variable name="x581_6" index="348775" value="1"/>
  <variable name="x582_556" index="349925" value="1"/>
  <variable name="x583_501" index="350470" value="1"/>
  <variable name="x584_167" index="350736" value="1"/>
  <variable name="x585_460" index="351629" value="1"/>
  <variable name="x586_535" index="352304" value="1"/>
  <variable name="x587_100" index="352469" value="1"/>
  <variable name="x588_113" index="353082" value="1"/>
  <variable name="x589_274" index="353843" value="1"/>
  <variable name="x590_199" index="354368" value="1"/>
  <variable name="x591_507" index="355276" value="1"/>
  <variable name="x592_288" index="355657" value="1"/>
  <variable name="x593_174" index="356143" value="1"/>
  <variable name="x594_177" index="356746" value="1"/>
  <variable name="x595_398" index="357567" value="1"/>
  <variable name="x596_108" index="357877" value="1"/>
  <variable name="x597_89" index="358458" value="1"/>
  <variable name="x598_465" index="359434" value="1"/>
  <variable name="x599_362" index="359931" value="1"/>
  <variable name="k0" index="360169" value="1"/>
  <variable name="k1" index="360170" value="1"/>
  <variable name="k4" index="360173" value="1"/>
  <variable name="k5" index="360174" value="1"/>
  <variable name="k7" index="360176" value="1"/>
  <variable name="k8" index="360177" value="1"/>
  <variable name="k9" index="360178" value="1"/>
  <variable name="k10" index="360179" value="1"/>
  <variable name="u1" index="360183" value="1"/>
  <variable name="u2" index="360184" value="1"/>
  <variable name="u4" index="360186" value="1"/>
  <variable name="u5" index="360187" value="1"/>
  <variable name="u6" index="360188" value="1"/>
  <variable name="u9" index="360191" value="1"/>
  <variable name="u12" index="360194" value="1"/>
 </variables>
</CPLEXSolution>
